 &control
    calculation='cp'
    restart_mode='from_scratch',
    prefix = "graphene",
    pseudo_dir = './',
    outdir='./out',
    dt=2.D0,
    nstep=1000,
    isave=10,
    tstress = .true.,
    tprnfor = .true.,
    iprint = 1,
    ndr = 68,
    ndw = 68, 
    max_seconds = 85000,
/
 &system
    ibrav= 0, nat=  98, ntyp= 1,
    ecutwfc = 85.0D0,
 /
&ELECTRONS
  electron_dynamics     = "damp",
  emass                 = 100.D0,
  emass_cutoff          = 25.D0,
  ortho_max             = 1000,
  electron_maxstep      = 1000,
/
&IONS
  ion_dynamics         = "none",
/
CELL_PARAMETERS angstrom
 17.2787614620889798    0.0000000000000000    0.0000000000000000
 -8.6393807313956792   14.9638463720634718    0.0000000000000000
  0.0000000000000000    0.0000000000000000   15.0000000000000000
ATOMIC_SPECIES
 C  12.0107  C.UPF
ATOMIC_POSITIONS crystal
 C  0.0004372775261976  0.1428569027234313  0.5004370373924861
 C  0.1428573829908544  0.1428569027234313  0.5000000000000000
 C  0.2857145258479972  0.1428569027234313  0.5000000000000000
 C  0.4285716687051400  0.1428569027234313  0.5000000000000000
 C  0.5714288115622828  0.1428569027234313  0.5000000000000000
 C  0.7142859544194257  0.1428569027234313  0.5000000000000000
 C  0.8571430972765685  0.1428569027234313  0.5000000000000000
 C  0.0000002401337115  0.2857140455805741  0.5000000000000000
 C  0.1428573829908543  0.2857140455805741  0.5000000000000000
 C  0.2857145258479972  0.2857140455805741  0.5000000000000000
 C  0.4285716687051400  0.2857140455805741  0.5000000000000000
 C  0.5714288115622828  0.2857140455805741  0.5000000000000000
 C  0.7142859544194257  0.2857140455805741  0.5000000000000000
 C  0.8571430972765685  0.2857140455805741  0.5000000000000000
 C  0.0000002401337114  0.4285711884377170  0.5000000000000000
 C  0.1428573829908543  0.4285711884377170  0.5000000000000000
 C  0.2857145258479972  0.4285711884377170  0.5000000000000000
 C  0.4285716687051400  0.4285711884377170  0.5000000000000000
 C  0.5714288115622828  0.4285711884377170  0.5000000000000000
 C  0.7142859544194256  0.4285711884377170  0.5000000000000000
 C  0.8571430972765683  0.4285711884377170  0.5000000000000000
 C  0.0000002401337115  0.5714283312948598  0.5000000000000000
 C  0.1428573829908543  0.5714283312948598  0.5000000000000000
 C  0.2857145258479972  0.5714283312948598  0.5000000000000000
 C  0.4285716687051400  0.5714283312948598  0.5000000000000000
 C  0.5714288115622826  0.5714283312948598  0.5000000000000000
 C  0.7142859544194256  0.5714283312948598  0.5000000000000000
 C  0.8571430972765685  0.5714283312948598  0.5000000000000000
 C  0.0000002401337114  0.7142854741520026  0.5000000000000000
 C  0.1428573829908543  0.7142854741520026  0.5000000000000000
 C  0.2857145258479971  0.7142854741520026  0.5000000000000000
 C  0.4285716687051400  0.7142854741520026  0.5000000000000000
 C  0.5714288115622828  0.7142854741520026  0.5000000000000000
 C  0.7142859544194257  0.7142854741520026  0.5000000000000000
 C  0.8571430972765685  0.7142854741520026  0.5000000000000000
 C  0.0000002401337114  0.8571426170091455  0.5000000000000000
 C  0.1428573829908542  0.8571426170091455  0.5000000000000000
 C  0.2857145258479971  0.8571426170091455  0.5000000000000000
 C  0.4285716687051400  0.8571426170091455  0.5000000000000000
 C  0.5714288115622828  0.8571426170091455  0.5000000000000000
 C  0.7142859544194256  0.8571426170091455  0.5000000000000000
 C  0.8571430972765683  0.8571426170091455  0.5000000000000000
 C  0.0000002401337114  0.9999997598662883  0.5000000000000000
 C  0.1428573829908543  0.9999997598662883  0.5000000000000000
 C  0.2857145258479971  0.9999997598662883  0.5000000000000000
 C  0.4285716687051399  0.9999997598662883  0.5000000000000000
 C  0.5714288115622826  0.9999997598662883  0.5000000000000000
 C  0.7142859544194256  0.9999997598662883  0.5000000000000000
 C  0.8571430972765685  0.9999997598662883  0.5000000000000000
 C  0.0952383387234314  0.0476188149908542  0.5000000000000000
 C  0.2380954815805743  0.0476188149908542  0.5000000000000000
 C  0.3809526244377171  0.0476188149908542  0.5000000000000000
 C  0.5238097672948600  0.0476188149908542  0.5000000000000000
 C  0.6666669101520029  0.0476188149908542  0.5000000000000000
 C  0.8095240530091456  0.0476188149908542  0.5000000000000000
 C  0.9523811958662884  0.0476188149908542  0.5000000000000000
 C  0.0952383387234314  0.1904759578479970  0.5000000000000000
 C  0.2380954815805743  0.1904759578479970  0.5000000000000000
 C  0.3809526244377171  0.1904759578479970  0.5000000000000000
 C  0.5238097672948598  0.1904759578479970  0.5000000000000000
 C  0.6666669101520029  0.1904759578479970  0.5000000000000000
 C  0.8095240530091456  0.1904759578479970  0.5000000000000000
 C  0.9523811958662886  0.1904759578479970  0.5000000000000000
 C  0.0952383387234314  0.3333331007051399  0.5000000000000000
 C  0.2380954815805742  0.3333331007051399  0.5000000000000000
 C  0.3809526244377170  0.3333331007051399  0.5000000000000000
 C  0.5238097672948598  0.3333331007051399  0.5000000000000000
 C  0.6666669101520027  0.3333331007051399  0.5000000000000000
 C  0.8095240530091455  0.3333331007051399  0.5000000000000000
 C  0.9523811958662884  0.3333331007051399  0.5000000000000000
 C  0.0952383387234313  0.4761902435622827  0.5000000000000000
 C  0.2380954815805742  0.4761902435622827  0.5000000000000000
 C  0.3809526244377170  0.4761902435622827  0.5000000000000000
 C  0.5238097672948598  0.4761902435622827  0.5000000000000000
 C  0.6666669101520027  0.4761902435622827  0.5000000000000000
 C  0.8095240530091455  0.4761902435622827  0.5000000000000000
 C  0.9523811958662884  0.4761902435622827  0.5000000000000000
 C  0.0952383387234313  0.6190473864194256  0.5000000000000000
 C  0.2380954815805742  0.6190473864194256  0.5000000000000000
 C  0.3809526244377170  0.6190473864194256  0.5000000000000000
 C  0.5238097672948598  0.6190473864194256  0.5000000000000000
 C  0.6666669101520027  0.6190473864194256  0.5000000000000000
 C  0.8095240530091454  0.6190473864194256  0.5000000000000000
 C  0.9523811958662883  0.6190473864194256  0.5000000000000000
 C  0.0952383387234313  0.7619045292765683  0.5000000000000000
 C  0.2380954815805742  0.7619045292765683  0.5000000000000000
 C  0.3809526244377170  0.7619045292765683  0.5000000000000000
 C  0.5238097672948598  0.7619045292765683  0.5000000000000000
 C  0.6666669101520026  0.7619045292765683  0.5000000000000000
 C  0.8095240530091454  0.7619045292765683  0.5000000000000000
 C  0.9523811958662884  0.7619045292765683  0.5000000000000000
 C  0.0952383387234313  0.9047616721337112  0.5000000000000000
 C  0.2380954815805741  0.9047616721337112  0.5000000000000000
 C  0.3809526244377170  0.9047616721337112  0.5000000000000000
 C  0.5238097672948597  0.9047616721337112  0.5000000000000000
 C  0.6666669101520026  0.9047616721337112  0.5000000000000000
 C  0.8095240530091454  0.9047616721337112  0.5000000000000000
 C  0.9523811958662884  0.9047616721337112  0.5000000000000000
