generated by phonopy
   1.0
    17.2787614620889798    0.0000000000000000    0.0000000000000000
    -8.6393807313956792   14.9638463720634718    0.0000000000000000
     0.0000000000000000    0.0000000000000000   15.0000000000000000
C
  98
Direct
  0.0000002401337115  0.1428569027234313  0.5000000000000000
  0.1428573829908544  0.1428569027234313  0.5000000000000000
  0.2857145258479972  0.1428569027234313  0.5000000000000000
  0.4285716687051401  0.1428569027234313  0.5000000000000000
  0.5714288115622829  0.1428569027234313  0.5000000000000000
  0.7142859544194258  0.1428569027234313  0.5000000000000000
  0.8571430972765686  0.1428569027234313  0.5000000000000000
  0.0000002401337115  0.2857140455805742  0.5000000000000000
  0.1428573829908544  0.2857140455805742  0.5000000000000000
  0.2857145258479972  0.2857140455805742  0.5000000000000000
  0.4285716687051401  0.2857140455805742  0.5000000000000000
  0.5714288115622829  0.2857140455805742  0.5000000000000000
  0.7142859544194258  0.2857140455805742  0.5000000000000000
  0.8571430972765686  0.2857140455805742  0.5000000000000000
  0.0000002401337115  0.4285711884377170  0.5000000000000000
  0.1428573829908544  0.4285711884377170  0.5000000000000000
  0.2857145258479972  0.4285711884377170  0.5000000000000000
  0.4285716687051401  0.4285711884377170  0.5000000000000000
  0.5714288115622829  0.4285711884377170  0.5000000000000000
  0.7142859544194258  0.4285711884377170  0.5000000000000000
  0.8571430972765686  0.4285711884377170  0.5000000000000000
  0.0000002401337115  0.5714283312948599  0.5000000000000000
  0.1428573829908544  0.5714283312948599  0.5000000000000000
  0.2857145258479972  0.5714283312948599  0.5000000000000000
  0.4285716687051401  0.5714283312948599  0.5000000000000000
  0.5714288115622829  0.5714283312948599  0.5000000000000000
  0.7142859544194258  0.5714283312948599  0.5000000000000000
  0.8571430972765686  0.5714283312948599  0.5000000000000000
  0.0000002401337115  0.7142854741520027  0.5000000000000000
  0.1428573829908544  0.7142854741520027  0.5000000000000000
  0.2857145258479972  0.7142854741520027  0.5000000000000000
  0.4285716687051401  0.7142854741520027  0.5000000000000000
  0.5714288115622829  0.7142854741520027  0.5000000000000000
  0.7142859544194258  0.7142854741520027  0.5000000000000000
  0.8571430972765686  0.7142854741520027  0.5000000000000000
  0.0000002401337115  0.8571426170091456  0.5000000000000000
  0.1428573829908544  0.8571426170091456  0.5000000000000000
  0.2857145258479972  0.8571426170091456  0.5000000000000000
  0.4285716687051401  0.8571426170091456  0.5000000000000000
  0.5714288115622829  0.8571426170091456  0.5000000000000000
  0.7142859544194258  0.8571426170091456  0.5000000000000000
  0.8571430972765686  0.8571426170091456  0.5000000000000000
  0.0000002401337115  0.9999997598662884  0.5000000000000000
  0.1428573829908544  0.9999997598662884  0.5000000000000000
  0.2857145258479972  0.9999997598662884  0.5000000000000000
  0.4285716687051401  0.9999997598662884  0.5000000000000000
  0.5714288115622829  0.9999997598662884  0.5000000000000000
  0.7142859544194258  0.9999997598662884  0.5000000000000000
  0.8571430972765686  0.9999997598662884  0.5000000000000000
  0.0952383387234314  0.0476188149908542  0.5000000000000000
  0.2380954815805743  0.0476188149908542  0.5000000000000000
  0.3809526244377171  0.0476188149908542  0.5000000000000000
  0.5238097672948600  0.0476188149908542  0.5000000000000000
  0.6666669101520029  0.0476188149908542  0.5000000000000000
  0.8095240530091456  0.0476188149908542  0.5000000000000000
  0.9523811958662886  0.0476188149908542  0.5000000000000000
  0.0952383387234314  0.1904759578479970  0.5000000000000000
  0.2380954815805743  0.1904759578479970  0.5000000000000000
  0.3809526244377171  0.1904759578479970  0.5000000000000000
  0.5238097672948600  0.1904759578479970  0.5000000000000000
  0.6666669101520029  0.1904759578479970  0.5000000000000000
  0.8095240530091456  0.1904759578479970  0.5000000000000000
  0.9523811958662886  0.1904759578479970  0.5000000000000000
  0.0952383387234314  0.3333331007051399  0.5000000000000000
  0.2380954815805743  0.3333331007051399  0.5000000000000000
  0.3809526244377171  0.3333331007051399  0.5000000000000000
  0.5238097672948600  0.3333331007051399  0.5000000000000000
  0.6666669101520029  0.3333331007051399  0.5000000000000000
  0.8095240530091456  0.3333331007051399  0.5000000000000000
  0.9523811958662886  0.3333331007051399  0.5000000000000000
  0.0952383387234314  0.4761902435622827  0.5000000000000000
  0.2380954815805743  0.4761902435622827  0.5000000000000000
  0.3809526244377171  0.4761902435622827  0.5000000000000000
  0.5238097672948600  0.4761902435622827  0.5000000000000000
  0.6666669101520029  0.4761902435622827  0.5000000000000000
  0.8095240530091456  0.4761902435622827  0.5000000000000000
  0.9523811958662886  0.4761902435622827  0.5000000000000000
  0.0952383387234314  0.6190473864194256  0.5000000000000000
  0.2380954815805743  0.6190473864194256  0.5000000000000000
  0.3809526244377171  0.6190473864194256  0.5000000000000000
  0.5238097672948600  0.6190473864194256  0.5000000000000000
  0.6666669101520029  0.6190473864194256  0.5000000000000000
  0.8095240530091456  0.6190473864194256  0.5000000000000000
  0.9523811958662886  0.6190473864194256  0.5000000000000000
  0.0952383387234314  0.7619045292765684  0.5000000000000000
  0.2380954815805743  0.7619045292765684  0.5000000000000000
  0.3809526244377171  0.7619045292765684  0.5000000000000000
  0.5238097672948600  0.7619045292765684  0.5000000000000000
  0.6666669101520029  0.7619045292765684  0.5000000000000000
  0.8095240530091456  0.7619045292765684  0.5000000000000000
  0.9523811958662886  0.7619045292765684  0.5000000000000000
  0.0952383387234314  0.9047616721337113  0.5000000000000000
  0.2380954815805743  0.9047616721337113  0.5000000000000000
  0.3809526244377171  0.9047616721337113  0.5000000000000000
  0.5238097672948600  0.9047616721337113  0.5000000000000000
  0.6666669101520029  0.9047616721337113  0.5000000000000000
  0.8095240530091456  0.9047616721337113  0.5000000000000000
  0.9523811958662886  0.9047616721337113  0.5000000000000000
